c WARNING: for repeatability, setting FPU to use double precision
d VARIABLES            226848       
d CONSTRAINTS          984494       
c ============================[ Problem Statistics ]=============================
c |                                                                             |
c |  Number of variables:        226848                                         |
c |  Number of clauses:          984494                                         |
c |  Parse time:                   0.16 s                                       |
c |                                                                             |
c ============================[ Search Statistics ]==============================
c | Conflicts |          ORIGINAL         |          LEARNT          | Progress |
c |           |    Vars  Clauses Literals |    Limit  Clauses Lit/Cl |          |
c ===============================================================================
c |       100 |  186568   880072  2133649 |   322693       99     19 | 17.756 % |
c |       250 |  186568   880072  2133649 |   354962      249     30 | 17.756 % |
c |       475 |  186568   880072  2133649 |   390458      474     87 | 17.756 % |
c |       812 |  186568   879977  2133421 |   429504      810     90 | 17.756 % |
c |      1318 |  186568   879977  2133421 |   472454     1316    140 | 17.756 % |
c |      2077 |  186568   879977  2133421 |   519700     2075    151 | 17.756 % |
c |      3216 |  186568   879977  2133421 |   571670     3214    159 | 17.756 % |
c |      4924 |  186568   879977  2133421 |   628837     4922    164 | 17.756 % |
c |      7486 |  186568   879977  2133421 |   691721     7484    164 | 17.756 % |
c |     11330 |  186568   879977  2133421 |   760893    11328    170 | 17.756 % |
c |     17096 |  186568   879977  2133421 |   836982    17094    156 | 17.756 % |
c |     25745 |  186568   879977  2133421 |   920680    25743    153 | 17.756 % |
c |     38719 |  186568   879977  2133421 |  1012749    38717    153 | 17.756 % |
c |     58180 |  186568   879977  2133421 |  1114023    58178    155 | 17.756 % |
c |     87372 |  186568   879977  2133421 |  1225426    87370    158 | 17.756 % |
c |    131161 |  186568   879977  2133421 |  1347969   131159    157 | 17.756 % |
c |    196845 |  186568   879977  2133421 |  1482765   196843    173 | 17.756 % |
c |    295371 |  186568   879977  2133421 |  1631042   295369    160 | 17.756 % |
c |    443160 |  186568   879977  2133421 |  1794146   443158    164 | 17.756 % |
c |    664843 |  186568   879977  2133421 |  1973561   664841    167 | 17.756 % |
c |    997368 |  186568   879977  2133421 |  2170917   997366    169 | 17.756 % |
c |   1496156 |  186568   879977  2133421 |  2388009  1496154    174 | 17.756 % |
c ===============================================================================
c restarts              : 3816
c conflicts             : 1947357        (1085 /sec)
c decisions             : 5000679        (0.00 % random) (2787 /sec)
c propagations          : 2777236770     (1547693 /sec)
c conflict literals     : 346635118      (42.24 % deleted)
d RESTARTS             3816
d FAILURES             1947357      
d NODES                5000679      
d BACKTRACKS           5000679      
d PROPAGATIONS         2777236770   
d NOGOODSIZE           178.00 
d MEMORY               1666.00 
d TIME                 1794.44 

s UNKNOWN
